c FILE: myciel3.col
c SOURCE: Michael Trick (trick@cmu.edu)
c DESCRIPTION: Graph based on Mycielski transformation.
c Triangle free (clique number 2) but increasing
c coloring number
p edge 5 6
e 1 4 
e 1 5
e 2 4 
e 2 5
e 3 4
e 3 5
